Problem:    udito
Rows:       8
Columns:    12
Non-zeros:  36
Status:     OPTIMAL
Objective:  overall_cost = 628250 (MINimum)

   No.   Row name   St   Activity     Lower bound   Upper bound    Marginal
------ ------------ -- ------------- ------------- ------------- -------------
     1 setSupply[Toltestava]
                    NU           100                         100          -450 
     2 setSupply[Komarom]
                    NU           400                         400          -200 
     3 setSupply[Dunaszerdahely]
                    B            250                         250 
     4 setDemand[Seregelyes]
                    NL           100           100                         900 
     5 setDemand[Gyor]
                    NL           350           350                         550 
     6 setDemand[Asvanyraro]
                    NL            50            50                         700 
     7 setDemand[Szolnok]
                    NL           250           250                        1700 
     8 overall_cost B         617500                             

   No. Column name  St   Activity     Lower bound   Upper bound    Marginal
------ ------------ -- ------------- ------------- ------------- -------------
     1 delivers[Toltestava,Seregelyes]
                    NL             0             0                         350 
     2 delivers[Toltestava,Gyor]
                    B            100             0               
     3 delivers[Toltestava,Asvanyraro]
                    NL             0             0                         100 
     4 delivers[Toltestava,Szolnok]
                    NL             0             0                         650 
     5 delivers[Komarom,Seregelyes]
                    B            100             0               
     6 delivers[Komarom,Gyor]
                    B              0             0               
     7 delivers[Komarom,Asvanyraro]
                    B             50             0               
     8 delivers[Komarom,Szolnok]
                    B            250             0               
     9 delivers[Dunaszerdahely,Seregelyes]
                    NL             0             0                         300 
    10 delivers[Dunaszerdahely,Gyor]
                    B            250             0               
    11 delivers[Dunaszerdahely,Asvanyraro]
                    NL             0             0                         100 
    12 delivers[Dunaszerdahely,Szolnok]
                    NL             0             0                         300 

Karush-Kuhn-Tucker optimality conditions:

KKT.PE: max.abs.err = 0.00e+00 on row 0
        max.rel.err = 0.00e+00 on row 0
        High quality

KKT.PB: max.abs.err = 0.00e+00 on row 0
        max.rel.err = 0.00e+00 on row 0
        High quality

KKT.DE: max.abs.err = 0.00e+00 on column 0
        max.rel.err = 0.00e+00 on column 0
        High quality

KKT.DB: max.abs.err = 0.00e+00 on row 0
        max.rel.err = 0.00e+00 on row 0
        High quality

End of output
